37 37
27
3 3 27 0
3 4 34 9
3 5 0 24
3 6 34 13
3 7 0 0
3 8 0 29
3 9 34 0
3 11 19 12
3 12 19 0
3 13 27 3
3 14 24 23
3 17 0 7
3 18 34 19
3 21 27 16
4 3 30 0
4 4 15 0
4 5 15 26
4 6 15 31
4 10 30 27
4 22 15 4
4 24 30 3
5 3 22 4
5 4 22 0
5 6 22 17
5 10 22 7
5 14 19 23
12 37 3 0
